p wcnf 8 25 107
107 1 2 0
107 1 4 0
107 1 5 0
107 1 7 0
107 1 8 0
107 2 3 0
107 2 5 0
107 2 7 0
107 3 4 0
107 3 6 0
107 4 5 0
107 4 7 0
107 5 6 0
107 5 7 0
107 6 7 0
107 6 8 0
107 7 8 0
4 -1 0
5 -2 0
6 -3 0
5 -4 0
4 -5 0
5 -6 0
3 -7 0
6 -8 0
